c description: Subset cardinality formula for fast_gnp_random_graph(6,10,0.9)
c generator: CNFgen (0.9.0)
c copyright: (C) 2012-2020 Massimo Lauria <massimo.lauria@uniroma1.it>
c url: https://massimolauria.net/cnfgen
c
p cnf 52 739
1 2 3 4 5 0
1 2 3 4 6 0
1 2 3 4 7 0
1 2 3 4 8 0
1 2 3 4 9 0
1 2 3 5 6 0
1 2 3 5 7 0
1 2 3 5 8 0
1 2 3 5 9 0
1 2 3 6 7 0
1 2 3 6 8 0
1 2 3 6 9 0
1 2 3 7 8 0
1 2 3 7 9 0
1 2 3 8 9 0
1 2 4 5 6 0
1 2 4 5 7 0
1 2 4 5 8 0
1 2 4 5 9 0
1 2 4 6 7 0
1 2 4 6 8 0
1 2 4 6 9 0
1 2 4 7 8 0
1 2 4 7 9 0
1 2 4 8 9 0
1 2 5 6 7 0
1 2 5 6 8 0
1 2 5 6 9 0
1 2 5 7 8 0
1 2 5 7 9 0
1 2 5 8 9 0
1 2 6 7 8 0
1 2 6 7 9 0
1 2 6 8 9 0
1 2 7 8 9 0
1 3 4 5 6 0
1 3 4 5 7 0
1 3 4 5 8 0
1 3 4 5 9 0
1 3 4 6 7 0
1 3 4 6 8 0
1 3 4 6 9 0
1 3 4 7 8 0
1 3 4 7 9 0
1 3 4 8 9 0
1 3 5 6 7 0
1 3 5 6 8 0
1 3 5 6 9 0
1 3 5 7 8 0
1 3 5 7 9 0
1 3 5 8 9 0
1 3 6 7 8 0
1 3 6 7 9 0
1 3 6 8 9 0
1 3 7 8 9 0
1 4 5 6 7 0
1 4 5 6 8 0
1 4 5 6 9 0
1 4 5 7 8 0
1 4 5 7 9 0
1 4 5 8 9 0
1 4 6 7 8 0
1 4 6 7 9 0
1 4 6 8 9 0
1 4 7 8 9 0
1 5 6 7 8 0
1 5 6 7 9 0
1 5 6 8 9 0
1 5 7 8 9 0
1 6 7 8 9 0
2 3 4 5 6 0
2 3 4 5 7 0
2 3 4 5 8 0
2 3 4 5 9 0
2 3 4 6 7 0
2 3 4 6 8 0
2 3 4 6 9 0
2 3 4 7 8 0
2 3 4 7 9 0
2 3 4 8 9 0
2 3 5 6 7 0
2 3 5 6 8 0
2 3 5 6 9 0
2 3 5 7 8 0
2 3 5 7 9 0
2 3 5 8 9 0
2 3 6 7 8 0
2 3 6 7 9 0
2 3 6 8 9 0
2 3 7 8 9 0
2 4 5 6 7 0
2 4 5 6 8 0
2 4 5 6 9 0
2 4 5 7 8 0
2 4 5 7 9 0
2 4 5 8 9 0
2 4 6 7 8 0
2 4 6 7 9 0
2 4 6 8 9 0
2 4 7 8 9 0
2 5 6 7 8 0
2 5 6 7 9 0
2 5 6 8 9 0
2 5 7 8 9 0
2 6 7 8 9 0
3 4 5 6 7 0
3 4 5 6 8 0
3 4 5 6 9 0
3 4 5 7 8 0
3 4 5 7 9 0
3 4 5 8 9 0
3 4 6 7 8 0
3 4 6 7 9 0
3 4 6 8 9 0
3 4 7 8 9 0
3 5 6 7 8 0
3 5 6 7 9 0
3 5 6 8 9 0
3 5 7 8 9 0
3 6 7 8 9 0
4 5 6 7 8 0
4 5 6 7 9 0
4 5 6 8 9 0
4 5 7 8 9 0
4 6 7 8 9 0
5 6 7 8 9 0
10 11 12 13 14 0
10 11 12 13 15 0
10 11 12 13 16 0
10 11 12 13 17 0
10 11 12 14 15 0
10 11 12 14 16 0
10 11 12 14 17 0
10 11 12 15 16 0
10 11 12 15 17 0
10 11 12 16 17 0
10 11 13 14 15 0
10 11 13 14 16 0
10 11 13 14 17 0
10 11 13 15 16 0
10 11 13 15 17 0
10 11 13 16 17 0
10 11 14 15 16 0
10 11 14 15 17 0
10 11 14 16 17 0
10 11 15 16 17 0
10 12 13 14 15 0
10 12 13 14 16 0
10 12 13 14 17 0
10 12 13 15 16 0
10 12 13 15 17 0
10 12 13 16 17 0
10 12 14 15 16 0
10 12 14 15 17 0
10 12 14 16 17 0
10 12 15 16 17 0
10 13 14 15 16 0
10 13 14 15 17 0
10 13 14 16 17 0
10 13 15 16 17 0
10 14 15 16 17 0
11 12 13 14 15 0
11 12 13 14 16 0
11 12 13 14 17 0
11 12 13 15 16 0
11 12 13 15 17 0
11 12 13 16 17 0
11 12 14 15 16 0
11 12 14 15 17 0
11 12 14 16 17 0
11 12 15 16 17 0
11 13 14 15 16 0
11 13 14 15 17 0
11 13 14 16 17 0
11 13 15 16 17 0
11 14 15 16 17 0
12 13 14 15 16 0
12 13 14 15 17 0
12 13 14 16 17 0
12 13 15 16 17 0
12 14 15 16 17 0
13 14 15 16 17 0
18 19 20 21 22 23 0
18 19 20 21 22 24 0
18 19 20 21 22 25 0
18 19 20 21 22 26 0
18 19 20 21 22 27 0
18 19 20 21 23 24 0
18 19 20 21 23 25 0
18 19 20 21 23 26 0
18 19 20 21 23 27 0
18 19 20 21 24 25 0
18 19 20 21 24 26 0
18 19 20 21 24 27 0
18 19 20 21 25 26 0
18 19 20 21 25 27 0
18 19 20 21 26 27 0
18 19 20 22 23 24 0
18 19 20 22 23 25 0
18 19 20 22 23 26 0
18 19 20 22 23 27 0
18 19 20 22 24 25 0
18 19 20 22 24 26 0
18 19 20 22 24 27 0
18 19 20 22 25 26 0
18 19 20 22 25 27 0
18 19 20 22 26 27 0
18 19 20 23 24 25 0
18 19 20 23 24 26 0
18 19 20 23 24 27 0
18 19 20 23 25 26 0
18 19 20 23 25 27 0
18 19 20 23 26 27 0
18 19 20 24 25 26 0
18 19 20 24 25 27 0
18 19 20 24 26 27 0
18 19 20 25 26 27 0
18 19 21 22 23 24 0
18 19 21 22 23 25 0
18 19 21 22 23 26 0
18 19 21 22 23 27 0
18 19 21 22 24 25 0
18 19 21 22 24 26 0
18 19 21 22 24 27 0
18 19 21 22 25 26 0
18 19 21 22 25 27 0
18 19 21 22 26 27 0
18 19 21 23 24 25 0
18 19 21 23 24 26 0
18 19 21 23 24 27 0
18 19 21 23 25 26 0
18 19 21 23 25 27 0
18 19 21 23 26 27 0
18 19 21 24 25 26 0
18 19 21 24 25 27 0
18 19 21 24 26 27 0
18 19 21 25 26 27 0
18 19 22 23 24 25 0
18 19 22 23 24 26 0
18 19 22 23 24 27 0
18 19 22 23 25 26 0
18 19 22 23 25 27 0
18 19 22 23 26 27 0
18 19 22 24 25 26 0
18 19 22 24 25 27 0
18 19 22 24 26 27 0
18 19 22 25 26 27 0
18 19 23 24 25 26 0
18 19 23 24 25 27 0
18 19 23 24 26 27 0
18 19 23 25 26 27 0
18 19 24 25 26 27 0
18 20 21 22 23 24 0
18 20 21 22 23 25 0
18 20 21 22 23 26 0
18 20 21 22 23 27 0
18 20 21 22 24 25 0
18 20 21 22 24 26 0
18 20 21 22 24 27 0
18 20 21 22 25 26 0
18 20 21 22 25 27 0
18 20 21 22 26 27 0
18 20 21 23 24 25 0
18 20 21 23 24 26 0
18 20 21 23 24 27 0
18 20 21 23 25 26 0
18 20 21 23 25 27 0
18 20 21 23 26 27 0
18 20 21 24 25 26 0
18 20 21 24 25 27 0
18 20 21 24 26 27 0
18 20 21 25 26 27 0
18 20 22 23 24 25 0
18 20 22 23 24 26 0
18 20 22 23 24 27 0
18 20 22 23 25 26 0
18 20 22 23 25 27 0
18 20 22 23 26 27 0
18 20 22 24 25 26 0
18 20 22 24 25 27 0
18 20 22 24 26 27 0
18 20 22 25 26 27 0
18 20 23 24 25 26 0
18 20 23 24 25 27 0
18 20 23 24 26 27 0
18 20 23 25 26 27 0
18 20 24 25 26 27 0
18 21 22 23 24 25 0
18 21 22 23 24 26 0
18 21 22 23 24 27 0
18 21 22 23 25 26 0
18 21 22 23 25 27 0
18 21 22 23 26 27 0
18 21 22 24 25 26 0
18 21 22 24 25 27 0
18 21 22 24 26 27 0
18 21 22 25 26 27 0
18 21 23 24 25 26 0
18 21 23 24 25 27 0
18 21 23 24 26 27 0
18 21 23 25 26 27 0
18 21 24 25 26 27 0
18 22 23 24 25 26 0
18 22 23 24 25 27 0
18 22 23 24 26 27 0
18 22 23 25 26 27 0
18 22 24 25 26 27 0
18 23 24 25 26 27 0
19 20 21 22 23 24 0
19 20 21 22 23 25 0
19 20 21 22 23 26 0
19 20 21 22 23 27 0
19 20 21 22 24 25 0
19 20 21 22 24 26 0
19 20 21 22 24 27 0
19 20 21 22 25 26 0
19 20 21 22 25 27 0
19 20 21 22 26 27 0
19 20 21 23 24 25 0
19 20 21 23 24 26 0
19 20 21 23 24 27 0
19 20 21 23 25 26 0
19 20 21 23 25 27 0
19 20 21 23 26 27 0
19 20 21 24 25 26 0
19 20 21 24 25 27 0
19 20 21 24 26 27 0
19 20 21 25 26 27 0
19 20 22 23 24 25 0
19 20 22 23 24 26 0
19 20 22 23 24 27 0
19 20 22 23 25 26 0
19 20 22 23 25 27 0
19 20 22 23 26 27 0
19 20 22 24 25 26 0
19 20 22 24 25 27 0
19 20 22 24 26 27 0
19 20 22 25 26 27 0
19 20 23 24 25 26 0
19 20 23 24 25 27 0
19 20 23 24 26 27 0
19 20 23 25 26 27 0
19 20 24 25 26 27 0
19 21 22 23 24 25 0
19 21 22 23 24 26 0
19 21 22 23 24 27 0
19 21 22 23 25 26 0
19 21 22 23 25 27 0
19 21 22 23 26 27 0
19 21 22 24 25 26 0
19 21 22 24 25 27 0
19 21 22 24 26 27 0
19 21 22 25 26 27 0
19 21 23 24 25 26 0
19 21 23 24 25 27 0
19 21 23 24 26 27 0
19 21 23 25 26 27 0
19 21 24 25 26 27 0
19 22 23 24 25 26 0
19 22 23 24 25 27 0
19 22 23 24 26 27 0
19 22 23 25 26 27 0
19 22 24 25 26 27 0
19 23 24 25 26 27 0
20 21 22 23 24 25 0
20 21 22 23 24 26 0
20 21 22 23 24 27 0
20 21 22 23 25 26 0
20 21 22 23 25 27 0
20 21 22 23 26 27 0
20 21 22 24 25 26 0
20 21 22 24 25 27 0
20 21 22 24 26 27 0
20 21 22 25 26 27 0
20 21 23 24 25 26 0
20 21 23 24 25 27 0
20 21 23 24 26 27 0
20 21 23 25 26 27 0
20 21 24 25 26 27 0
20 22 23 24 25 26 0
20 22 23 24 25 27 0
20 22 23 24 26 27 0
20 22 23 25 26 27 0
20 22 24 25 26 27 0
20 23 24 25 26 27 0
21 22 23 24 25 26 0
21 22 23 24 25 27 0
21 22 23 24 26 27 0
21 22 23 25 26 27 0
21 22 24 25 26 27 0
21 23 24 25 26 27 0
22 23 24 25 26 27 0
28 29 30 31 32 0
28 29 30 31 33 0
28 29 30 31 34 0
28 29 30 31 35 0
28 29 30 31 36 0
28 29 30 32 33 0
28 29 30 32 34 0
28 29 30 32 35 0
28 29 30 32 36 0
28 29 30 33 34 0
28 29 30 33 35 0
28 29 30 33 36 0
28 29 30 34 35 0
28 29 30 34 36 0
28 29 30 35 36 0
28 29 31 32 33 0
28 29 31 32 34 0
28 29 31 32 35 0
28 29 31 32 36 0
28 29 31 33 34 0
28 29 31 33 35 0
28 29 31 33 36 0
28 29 31 34 35 0
28 29 31 34 36 0
28 29 31 35 36 0
28 29 32 33 34 0
28 29 32 33 35 0
28 29 32 33 36 0
28 29 32 34 35 0
28 29 32 34 36 0
28 29 32 35 36 0
28 29 33 34 35 0
28 29 33 34 36 0
28 29 33 35 36 0
28 29 34 35 36 0
28 30 31 32 33 0
28 30 31 32 34 0
28 30 31 32 35 0
28 30 31 32 36 0
28 30 31 33 34 0
28 30 31 33 35 0
28 30 31 33 36 0
28 30 31 34 35 0
28 30 31 34 36 0
28 30 31 35 36 0
28 30 32 33 34 0
28 30 32 33 35 0
28 30 32 33 36 0
28 30 32 34 35 0
28 30 32 34 36 0
28 30 32 35 36 0
28 30 33 34 35 0
28 30 33 34 36 0
28 30 33 35 36 0
28 30 34 35 36 0
28 31 32 33 34 0
28 31 32 33 35 0
28 31 32 33 36 0
28 31 32 34 35 0
28 31 32 34 36 0
28 31 32 35 36 0
28 31 33 34 35 0
28 31 33 34 36 0
28 31 33 35 36 0
28 31 34 35 36 0
28 32 33 34 35 0
28 32 33 34 36 0
28 32 33 35 36 0
28 32 34 35 36 0
28 33 34 35 36 0
29 30 31 32 33 0
29 30 31 32 34 0
29 30 31 32 35 0
29 30 31 32 36 0
29 30 31 33 34 0
29 30 31 33 35 0
29 30 31 33 36 0
29 30 31 34 35 0
29 30 31 34 36 0
29 30 31 35 36 0
29 30 32 33 34 0
29 30 32 33 35 0
29 30 32 33 36 0
29 30 32 34 35 0
29 30 32 34 36 0
29 30 32 35 36 0
29 30 33 34 35 0
29 30 33 34 36 0
29 30 33 35 36 0
29 30 34 35 36 0
29 31 32 33 34 0
29 31 32 33 35 0
29 31 32 33 36 0
29 31 32 34 35 0
29 31 32 34 36 0
29 31 32 35 36 0
29 31 33 34 35 0
29 31 33 34 36 0
29 31 33 35 36 0
29 31 34 35 36 0
29 32 33 34 35 0
29 32 33 34 36 0
29 32 33 35 36 0
29 32 34 35 36 0
29 33 34 35 36 0
30 31 32 33 34 0
30 31 32 33 35 0
30 31 32 33 36 0
30 31 32 34 35 0
30 31 32 34 36 0
30 31 32 35 36 0
30 31 33 34 35 0
30 31 33 34 36 0
30 31 33 35 36 0
30 31 34 35 36 0
30 32 33 34 35 0
30 32 33 34 36 0
30 32 33 35 36 0
30 32 34 35 36 0
30 33 34 35 36 0
31 32 33 34 35 0
31 32 33 34 36 0
31 32 33 35 36 0
31 32 34 35 36 0
31 33 34 35 36 0
32 33 34 35 36 0
37 38 39 40 41 0
37 38 39 40 42 0
37 38 39 40 43 0
37 38 39 40 44 0
37 38 39 41 42 0
37 38 39 41 43 0
37 38 39 41 44 0
37 38 39 42 43 0
37 38 39 42 44 0
37 38 39 43 44 0
37 38 40 41 42 0
37 38 40 41 43 0
37 38 40 41 44 0
37 38 40 42 43 0
37 38 40 42 44 0
37 38 40 43 44 0
37 38 41 42 43 0
37 38 41 42 44 0
37 38 41 43 44 0
37 38 42 43 44 0
37 39 40 41 42 0
37 39 40 41 43 0
37 39 40 41 44 0
37 39 40 42 43 0
37 39 40 42 44 0
37 39 40 43 44 0
37 39 41 42 43 0
37 39 41 42 44 0
37 39 41 43 44 0
37 39 42 43 44 0
37 40 41 42 43 0
37 40 41 42 44 0
37 40 41 43 44 0
37 40 42 43 44 0
37 41 42 43 44 0
38 39 40 41 42 0
38 39 40 41 43 0
38 39 40 41 44 0
38 39 40 42 43 0
38 39 40 42 44 0
38 39 40 43 44 0
38 39 41 42 43 0
38 39 41 42 44 0
38 39 41 43 44 0
38 39 42 43 44 0
38 40 41 42 43 0
38 40 41 42 44 0
38 40 41 43 44 0
38 40 42 43 44 0
38 41 42 43 44 0
39 40 41 42 43 0
39 40 41 42 44 0
39 40 41 43 44 0
39 40 42 43 44 0
39 41 42 43 44 0
40 41 42 43 44 0
45 46 47 48 49 0
45 46 47 48 50 0
45 46 47 48 51 0
45 46 47 48 52 0
45 46 47 49 50 0
45 46 47 49 51 0
45 46 47 49 52 0
45 46 47 50 51 0
45 46 47 50 52 0
45 46 47 51 52 0
45 46 48 49 50 0
45 46 48 49 51 0
45 46 48 49 52 0
45 46 48 50 51 0
45 46 48 50 52 0
45 46 48 51 52 0
45 46 49 50 51 0
45 46 49 50 52 0
45 46 49 51 52 0
45 46 50 51 52 0
45 47 48 49 50 0
45 47 48 49 51 0
45 47 48 49 52 0
45 47 48 50 51 0
45 47 48 50 52 0
45 47 48 51 52 0
45 47 49 50 51 0
45 47 49 50 52 0
45 47 49 51 52 0
45 47 50 51 52 0
45 48 49 50 51 0
45 48 49 50 52 0
45 48 49 51 52 0
45 48 50 51 52 0
45 49 50 51 52 0
46 47 48 49 50 0
46 47 48 49 51 0
46 47 48 49 52 0
46 47 48 50 51 0
46 47 48 50 52 0
46 47 48 51 52 0
46 47 49 50 51 0
46 47 49 50 52 0
46 47 49 51 52 0
46 47 50 51 52 0
46 48 49 50 51 0
46 48 49 50 52 0
46 48 49 51 52 0
46 48 50 51 52 0
46 49 50 51 52 0
47 48 49 50 51 0
47 48 49 50 52 0
47 48 49 51 52 0
47 48 50 51 52 0
47 49 50 51 52 0
48 49 50 51 52 0
-1 -10 -18 -28 0
-1 -10 -18 -37 0
-1 -10 -18 -45 0
-1 -10 -28 -37 0
-1 -10 -28 -45 0
-1 -10 -37 -45 0
-1 -18 -28 -37 0
-1 -18 -28 -45 0
-1 -18 -37 -45 0
-1 -28 -37 -45 0
-10 -18 -28 -37 0
-10 -18 -28 -45 0
-10 -18 -37 -45 0
-10 -28 -37 -45 0
-18 -28 -37 -45 0
-2 -11 -19 0
-2 -11 -29 0
-2 -11 -38 0
-2 -19 -29 0
-2 -19 -38 0
-2 -29 -38 0
-11 -19 -29 0
-11 -19 -38 0
-11 -29 -38 0
-19 -29 -38 0
-3 -20 -30 0
-3 -20 -46 0
-3 -30 -46 0
-20 -30 -46 0
-4 -12 -21 0
-4 -12 -39 0
-4 -12 -47 0
-4 -21 -39 0
-4 -21 -47 0
-4 -39 -47 0
-12 -21 -39 0
-12 -21 -47 0
-12 -39 -47 0
-21 -39 -47 0
-5 -13 -22 0
-5 -13 -31 0
-5 -13 -48 0
-5 -22 -31 0
-5 -22 -48 0
-5 -31 -48 0
-13 -22 -31 0
-13 -22 -48 0
-13 -31 -48 0
-22 -31 -48 0
-6 -14 -23 -32 0
-6 -14 -23 -40 0
-6 -14 -23 -49 0
-6 -14 -32 -40 0
-6 -14 -32 -49 0
-6 -14 -40 -49 0
-6 -23 -32 -40 0
-6 -23 -32 -49 0
-6 -23 -40 -49 0
-6 -32 -40 -49 0
-14 -23 -32 -40 0
-14 -23 -32 -49 0
-14 -23 -40 -49 0
-14 -32 -40 -49 0
-23 -32 -40 -49 0
-7 -15 -24 0
-7 -15 -33 0
-7 -15 -41 0
-7 -24 -33 0
-7 -24 -41 0
-7 -33 -41 0
-15 -24 -33 0
-15 -24 -41 0
-15 -33 -41 0
-24 -33 -41 0
-8 -16 -25 -34 0
-8 -16 -25 -42 0
-8 -16 -25 -50 0
-8 -16 -34 -42 0
-8 -16 -34 -50 0
-8 -16 -42 -50 0
-8 -25 -34 -42 0
-8 -25 -34 -50 0
-8 -25 -42 -50 0
-8 -34 -42 -50 0
-16 -25 -34 -42 0
-16 -25 -34 -50 0
-16 -25 -42 -50 0
-16 -34 -42 -50 0
-25 -34 -42 -50 0
-9 -26 -35 0
-9 -26 -43 0
-9 -26 -51 0
-9 -35 -43 0
-9 -35 -51 0
-9 -43 -51 0
-26 -35 -43 0
-26 -35 -51 0
-26 -43 -51 0
-35 -43 -51 0
-17 -27 -36 0
-17 -27 -44 0
-17 -27 -52 0
-17 -36 -44 0
-17 -36 -52 0
-17 -44 -52 0
-27 -36 -44 0
-27 -36 -52 0
-27 -44 -52 0
-36 -44 -52 0